Problem:    20
Rows:       74
Columns:    48
Non-zeros:  192
Status:     OPTIMAL
Objective:  z = 82100 (MAXimum)

   No.   Row name   St   Activity     Lower bound   Upper bound    Marginal
------ ------------ -- ------------- ------------- ------------- -------------
     1 Flow_Conservation[1,A]
                    NS             0            -0             =           -15 
     2 Flow_Conservation[1,B]
                    NS             0            -0             =         < eps
     3 Flow_Conservation[1,C]
                    NS             0            -0             =         < eps
     4 Flow_Conservation[2,A]
                    NS             0            -0             =           -30 
     5 Flow_Conservation[2,B]
                    NS             0            -0             =         < eps
     6 Flow_Conservation[2,C]
                    NS             0            -0             =           -15 
     7 Flow_Conservation[3,A]
                    NS             0            -0             =           -80 
     8 Flow_Conservation[3,B]
                    NS             0            -0             =           -65 
     9 Flow_Conservation[3,C]
                    NS             0            -0             =           -65 
    10 Flow_Conservation[4,A]
                    NS             0            -0             =           -80 
    11 Flow_Conservation[4,B]
                    NS             0            -0             =           -50 
    12 Flow_Conservation[4,C]
                    NS             0            -0             =           -65 
    13 Flow_Conservation[5,A]
                    NS             0            -0             =           -80 
    14 Flow_Conservation[5,B]
                    NS             0            -0             =           -50 
    15 Flow_Conservation[5,C]
                    NS             0            -0             =           -65 
    16 Flow_Conservation[6,A]
                    NS             0            -0             =           -80 
    17 Flow_Conservation[6,B]
                    NS             0            -0             =           -50 
    18 Flow_Conservation[6,C]
                    NS             0            -0             =           -65 
    19 Flow_Conservation[7,A]
                    NS             0            -0             =           -80 
    20 Flow_Conservation[7,B]
                    NS             0            -0             =           -50 
    21 Flow_Conservation[7,C]
                    NS             0            -0             =           -65 
    22 Flow_Conservation[8,A]
                    NS             0            -0             =           -80 
    23 Flow_Conservation[8,B]
                    NS             0            -0             =           -50 
    24 Flow_Conservation[8,C]
                    NS             0            -0             =           -65 
    25 limiteStazionePartenza[A]
                    B            550                        1000 
    26 limiteStazionePartenza[B]
                    B             34                        1000 
    27 limiteStazionePartenza[C]
                    B            560                        1000 
    28 Capacity[0,1]
                    B            760                         800 
    29 Capacity[0,2]
                    B            384                         480 
    30 Capacity[1,3]
                    NU           400                         400            65 
    31 Capacity[1,4]
                    NU           360                         360            65 
    32 Capacity[2,4]
                    NU           256                         256            50 
    33 Capacity[2,5]
                    NU           128                         128            50 
    34 Capacity[3,6]
                    B            302                         320 
    35 Capacity[3,7]
                    B             98                         384 
    36 Capacity[4,6]
                    B            184                         240 
    37 Capacity[4,7]
                    NU           192                         192         < eps
    38 Capacity[4,8]
                    NU           240                         240         < eps
    39 Capacity[5,7]
                    B             10                         720 
    40 Capacity[5,8]
                    B            118                         400 
    41 Capacity[6,9]
                    NU           486                         486         < eps
    42 Capacity[7,9]
                    NU           300                         300         < eps
    43 Capacity[8,9]
                    B            358                         396 
    44 Node_Capacity[0,A]
                    B              0                        1000 
    45 Node_Capacity[0,B]
                    B              0                        1000 
    46 Node_Capacity[0,C]
                    B              0                        1000 
    47 Node_Capacity[1,A]
                    NU           300                         300            15 
    48 Node_Capacity[1,B]
                    B              0                        1800 
    49 Node_Capacity[1,C]
                    B            460                        1400 
    50 Node_Capacity[2,A]
                    NU           250                         250            30 
    51 Node_Capacity[2,B]
                    B             34                         900 
    52 Node_Capacity[2,C]
                    NU           100                         100            15 
    53 Node_Capacity[3,A]
                    B              0                         900 
    54 Node_Capacity[3,B]
                    B              0                         650 
    55 Node_Capacity[3,C]
                    B            400                        1400 
    56 Node_Capacity[4,A]
                    B            422                        2000 
    57 Node_Capacity[4,B]
                    B             34                        1500 
    58 Node_Capacity[4,C]
                    B            160                        2000 
    59 Node_Capacity[5,A]
                    B            128                        1000 
    60 Node_Capacity[5,B]
                    B              0                        1000 
    61 Node_Capacity[5,C]
                    B              0                        1000 
    62 Node_Capacity[6,A]
                    B            184                        1200 
    63 Node_Capacity[6,B]
                    B              0                        1200 
    64 Node_Capacity[6,C]
                    B            302                        1400 
    65 Node_Capacity[7,A]
                    B            202                         600 
    66 Node_Capacity[7,B]
                    B              0                         700 
    67 Node_Capacity[7,C]
                    B             98                         950 
    68 Node_Capacity[8,A]
                    B            164                         300 
    69 Node_Capacity[8,B]
                    B             34                        1700 
    70 Node_Capacity[8,C]
                    B            160                        1900 
    71 Node_Capacity[9,A]
                    B            550                        1000 
    72 Node_Capacity[9,B]
                    B             34                        1000 
    73 Node_Capacity[9,C]
                    B            560                        1000 
    74 z            B          82100                             

   No. Column name  St   Activity     Lower bound   Upper bound    Marginal
------ ------------ -- ------------- ------------- ------------- -------------
     1 x[0,1,A]     B            300             0               
     2 x[1,3,A]     B              0             0               
     3 x[1,4,A]     B            300             0               
     4 x[0,1,B]     B              0             0               
     5 x[1,3,B]     B              0             0               
     6 x[1,4,B]     NL             0             0                         -15 
     7 x[0,1,C]     B            460             0               
     8 x[1,3,C]     B            400             0               
     9 x[1,4,C]     B             60             0               
    10 x[0,2,A]     B            250             0               
    11 x[2,4,A]     B            122             0               
    12 x[2,5,A]     B            128             0               
    13 x[0,2,B]     B             34             0               
    14 x[2,4,B]     B             34             0               
    15 x[2,5,B]     B              0             0               
    16 x[0,2,C]     B            100             0               
    17 x[2,4,C]     B            100             0               
    18 x[2,5,C]     B              0             0               
    19 x[3,6,A]     NL             0             0                       < eps
    20 x[3,7,A]     NL             0             0                       < eps
    21 x[3,6,B]     NL             0             0                         -15 
    22 x[3,7,B]     NL             0             0                         -15 
    23 x[3,6,C]     B            302             0               
    24 x[3,7,C]     B             98             0               
    25 x[4,6,A]     B            184             0               
    26 x[4,7,A]     B            192             0               
    27 x[4,8,A]     B             46             0               
    28 x[4,6,B]     NL             0             0                       < eps
    29 x[4,7,B]     NL             0             0                       < eps
    30 x[4,8,B]     B             34             0               
    31 x[4,6,C]     NL             0             0                       < eps
    32 x[4,7,C]     NL             0             0                       < eps
    33 x[4,8,C]     B            160             0               
    34 x[5,7,A]     B             10             0               
    35 x[5,8,A]     B            118             0               
    36 x[5,7,B]     NL             0             0                       < eps
    37 x[5,8,B]     NL             0             0                       < eps
    38 x[5,7,C]     NL             0             0                       < eps
    39 x[5,8,C]     NL             0             0                       < eps
    40 x[6,9,A]     B            184             0               
    41 x[6,9,B]     B              0             0               
    42 x[6,9,C]     B            302             0               
    43 x[7,9,A]     B            202             0               
    44 x[7,9,B]     B              0             0               
    45 x[7,9,C]     B             98             0               
    46 x[8,9,A]     B            164             0               
    47 x[8,9,B]     B             34             0               
    48 x[8,9,C]     B            160             0               

Karush-Kuhn-Tucker optimality conditions:

KKT.PE: max.abs.err = 0.00e+000 on row 0
        max.rel.err = 0.00e+000 on row 0
        High quality

KKT.PB: max.abs.err = 0.00e+000 on row 0
        max.rel.err = 0.00e+000 on row 0
        High quality

KKT.DE: max.abs.err = 0.00e+000 on column 0
        max.rel.err = 0.00e+000 on column 0
        High quality

KKT.DB: max.abs.err = 0.00e+000 on row 0
        max.rel.err = 0.00e+000 on row 0
        High quality

End of output
